p edge 30 110 5
v 5 1 5 7 9 24
v 3 21 28 29
v 9 4 8 11 12 15 17 19 26 27
v 7 3 6 10 14 16 18 23
v 6 2 13 20 22 25 30
e 1 14
e 1 19
e 1 20
e 1 27
e 1 28
e 2 15
e 2 20
e 2 24
e 2 27
e 2 29
e 3 4
e 3 6
e 3 13
e 3 14
e 3 15
e 3 21
e 3 25
e 4 6
e 4 15
e 4 20
e 4 23
e 4 27
e 4 29
e 5 10
e 5 11
e 5 13
e 5 14
e 5 16
e 5 22
e 5 23
e 5 27
e 6 14
e 6 17
e 6 21
e 6 25
e 7 12
e 7 14
e 7 17
e 7 22
e 7 25
e 7 27
e 8 11
e 8 21
e 8 29
e 9 12
e 9 15
e 9 22
e 9 26
e 9 28
e 9 30
e 10 17
e 10 20
e 10 22
e 10 23
e 10 25
e 10 27
e 11 15
e 11 21
e 11 26
e 11 29
e 11 30
e 12 13
e 12 19
e 12 21
e 12 25
e 12 27
e 13 16
e 13 18
e 13 23
e 13 24
e 13 29
e 14 21
e 14 22
e 15 20
e 15 26
e 15 29
e 16 18
e 16 29
e 17 22
e 17 23
e 17 24
e 17 28
e 18 21
e 18 24
e 18 25
e 18 26
e 18 29
e 19 30
e 20 21
e 20 26
e 20 29
e 21 22
e 21 23
e 21 24
e 21 26
e 21 27
e 21 28
e 23 25
e 23 26
e 23 28
e 23 29
e 24 26
e 24 27
e 25 27
e 25 28
e 26 27
e 26 28
e 26 30
e 27 28
e 27 29
